DIM: 16
FLOW: 
0 0 1 1 0 1 1 1 1 0 0 0 0 0 0 0
0 0 0 1 0 0 0 0 0 0 0 0 0 0 0 0
1 0 0 0 0 0 0 0 0 0 0 0 0 0 0 0
1 1 0 0 0 1 1 1 1 0 0 0 0 0 0 0
0 0 0 0 0 1 1 1 1 0 0 0 0 0 0 0
1 0 0 1 1 0 2 3 2 0 0 0 0 0 0 0
1 0 0 1 1 2 0 2 1 0 0 0 0 0 0 0
1 0 0 1 1 3 2 0 2 0 0 0 0 0 0 0
1 0 0 1 1 2 1 2 0 0 0 0 0 0 0 0
0 0 0 0 0 0 0 0 0 0 0 0 0 0 0 0
0 0 0 0 0 0 0 0 0 0 0 0 0 0 0 0
0 0 0 0 0 0 0 0 0 0 0 0 0 0 0 0
0 0 0 0 0 0 0 0 0 0 0 0 0 0 0 0
0 0 0 0 0 0 0 0 0 0 0 0 0 0 0 0
0 0 0 0 0 0 0 0 0 0 0 0 0 0 0 0
0 0 0 0 0 0 0 0 0 0 0 0 0 0 0 0
DISTANCE: 
0 0 0 1 0 1 1 2 0 1 1 2 1 2 2 3
0 0 1 0 1 0 2 1 1 0 2 1 2 1 3 2
0 1 0 0 1 2 0 1 1 2 0 1 2 3 1 2
1 0 0 0 2 1 1 0 2 1 1 0 3 2 2 1
0 1 1 2 0 0 0 1 1 2 2 3 0 1 1 2
1 0 2 1 0 0 1 0 2 1 3 2 1 0 2 1
1 2 0 1 0 1 0 0 2 3 1 2 1 2 0 1
2 1 1 0 1 0 0 0 3 2 2 1 2 1 1 0
0 1 1 2 1 2 2 3 0 0 0 1 0 1 1 2
1 0 2 1 2 1 3 2 0 0 1 0 1 0 2 1
1 2 0 1 2 3 1 2 0 1 0 0 1 2 0 1
2 1 1 0 3 2 2 1 1 0 0 0 2 1 1 0
1 2 2 3 0 1 1 2 0 1 1 2 0 0 0 1
2 1 3 2 1 0 2 1 1 0 2 1 0 0 1 0
2 3 1 2 1 2 0 1 1 2 0 1 0 1 0 0
3 2 2 1 2 1 1 0 2 1 1 0 1 0 0 0
OPT_OBJ: 28
OPT_SOLUTION: 
16 7 8 15 9 12 14 10 11 2 6 5 13 4 3 1 